2 20
812 900 
0 77 67 95 85 18 75 1
1 107 97 92 82 30 29 2
2 49 39 84 74 26 83 2
3 40 30 48 38 9 31 1
4 43 33 14 4 5 71 1
5 81 71 90 80 79 56 2
6 104 94 51 41 53 94 1
7 73 63 50 40 39 59 2
8 13 3 64 54 31 75 2
9 87 77 55 45 7 41 2
10 59 49 105 95 95 91 2
11 78 68 87 77 18 92 1
12 38 28 65 55 63 70 2
13 79 69 27 17 99 16 2
14 97 87 43 33 27 53 1
15 21 11 53 43 42 74 1
16 54 44 29 19 6 46 1
17 24 14 76 66 59 5 2
18 43 33 90 80 32 64 1
19 48 38 108 98 4 28 1
